NAME          Hello
ROWS
 N  OBJROW
 L  R0000000
 L  R0000001
 L  R0000002
 L  R0000003
 L  R0000004
 L  R0000005
 L  R0000006
 L  R0000007
 L  R0000008
 L  R0000009
 L  R0000010
 L  R0000011
 L  R0000012
 L  R0000013
 L  R0000014
 L  R0000015
 L  R0000016
 L  R0000017
 L  R0000018
 L  R0000019
 L  R0000020
COLUMNS
    C0000000  OBJROW    1.             R0000000  1.          
    C0000000  R0000001  1.             R0000002  1.          
    C0000000  R0000003  1.             R0000004  1.          
    C0000000  R0000005  1.             R0000006  1.          
    C0000000  R0000007  1.             R0000008  1.          
    C0000000  R0000011  1.             R0000012  1.          
    C0000000  R0000013  1.             R0000014  1.          
    C0000000  R0000015  1.             R0000016  1.          
    C0000000  R0000017  1.          
    C0000001  OBJROW    1.             R0000004  1.          
    C0000001  R0000018  1.          
    C0000002  OBJROW    1.             R0000004  1.          
    C0000002  R0000019  1.          
    C0000003  OBJROW    1.             R0000004  1.          
    C0000003  R0000018  1.          
    C0000004  OBJROW    1.             R0000004  1.          
    C0000004  R0000017  1.          
    C0000005  OBJROW    1.             R0000004  1.          
    C0000005  R0000018  1.          
    C0000006  OBJROW    1.             R0000004  1.          
    C0000006  R0000019  1.          
    C0000007  OBJROW    1.             R0000004  1.          
    C0000007  R0000018  1.          
    C0000008  OBJROW    1.             R0000000  1.          
    C0000008  R0000001  1.             R0000002  1.          
    C0000008  R0000003  1.             R0000004  1.          
    C0000008  R0000005  1.             R0000006  1.          
    C0000008  R0000007  1.             R0000008  1.          
    C0000008  R0000011  1.             R0000012  1.          
    C0000008  R0000013  1.             R0000014  1.          
    C0000008  R0000015  1.             R0000016  1.          
    C0000008  R0000017  1.          
    C0000009  OBJROW    1.          
    C0000010  OBJROW    1.          
    C0000011  OBJROW    1.             R0000000  1.          
    C0000011  R0000001  1.             R0000002  1.          
    C0000011  R0000003  1.             R0000004  1.          
    C0000011  R0000005  1.             R0000006  1.          
    C0000011  R0000007  1.             R0000008  1.          
    C0000011  R0000013  1.             R0000014  1.          
    C0000011  R0000015  1.             R0000016  1.          
    C0000011  R0000017  1.          
    C0000012  OBJROW    1.             R0000000  1.          
    C0000012  R0000004  1.             R0000008  1.          
    C0000012  R0000012  1.             R0000018  1.          
    C0000013  OBJROW    1.             R0000000  1.          
    C0000013  R0000004  1.             R0000008  1.          
    C0000013  R0000011  1.             R0000019  1.          
    C0000014  OBJROW    1.             R0000000  1.          
    C0000014  R0000004  1.             R0000008  1.          
    C0000014  R0000011  1.             R0000019  1.          
    C0000015  OBJROW    1.             R0000000  1.          
    C0000015  R0000004  1.             R0000008  1.          
    C0000015  R0000011  1.             R0000019  1.          
    C0000016  OBJROW    1.             R0000000  1.          
    C0000016  R0000004  1.             R0000008  1.          
    C0000016  R0000011  1.             R0000019  1.          
    C0000017  OBJROW    1.             R0000000  1.          
    C0000017  R0000008  1.             R0000011  1.          
    C0000017  R0000019  1.          
    C0000018  OBJROW    1.             R0000000  1.          
    C0000018  R0000008  1.             R0000012  1.          
    C0000018  R0000018  1.          
    C0000019  OBJROW    1.             R0000000  1.          
    C0000019  R0000008  1.             R0000013  1.          
    C0000019  R0000014  1.             R0000015  1.          
    C0000019  R0000016  1.             R0000017  1.          
    C0000020  OBJROW    1.          
    C0000021  OBJROW    1.          
    C0000022  OBJROW    1.             R0000000  1.          
    C0000022  R0000001  1.             R0000002  1.          
    C0000022  R0000003  1.             R0000004  1.          
    C0000022  R0000005  1.             R0000006  1.          
    C0000022  R0000007  1.             R0000008  1.          
    C0000022  R0000011  1.             R0000012  1.          
    C0000022  R0000013  1.             R0000014  1.          
    C0000022  R0000015  1.             R0000016  1.          
    C0000022  R0000017  1.             R0000018  1.          
    C0000022  R0000019  1.          
    C0000023  OBJROW    1.             R0000008  1.          
    C0000023  R0000011  1.             R0000015  1.          
    C0000024  OBJROW    1.             R0000008  1.          
    C0000024  R0000011  1.             R0000015  1.          
    C0000025  OBJROW    1.             R0000008  1.          
    C0000025  R0000011  1.             R0000015  1.          
    C0000025  R0000016  1.          
    C0000026  OBJROW    1.             R0000008  1.          
    C0000026  R0000011  1.             R0000015  1.          
    C0000026  R0000017  1.          
    C0000027  OBJROW    1.             R0000008  1.          
    C0000027  R0000012  1.             R0000014  1.          
    C0000027  R0000018  1.          
    C0000028  OBJROW    1.             R0000008  1.          
    C0000028  R0000013  1.             R0000014  1.          
    C0000028  R0000019  1.          
    C0000029  OBJROW    1.             R0000008  1.          
    C0000030  OBJROW    1.             R0000008  1.          
    C0000031  OBJROW    1.          
    C0000032  OBJROW    1.          
    C0000033  OBJROW    1.             R0000000  1.          
    C0000033  R0000001  1.             R0000002  1.          
    C0000033  R0000003  1.             R0000004  1.          
    C0000033  R0000005  1.             R0000006  1.          
    C0000033  R0000007  1.             R0000008  1.          
    C0000033  R0000011  1.             R0000012  1.          
    C0000033  R0000013  1.             R0000014  1.          
    C0000033  R0000015  1.             R0000016  1.          
    C0000033  R0000017  1.             R0000018  1.          
    C0000033  R0000019  1.          
    C0000034  OBJROW    1.             R0000008  1.          
    C0000034  R0000019  1.          
    C0000035  OBJROW    1.             R0000008  1.          
    C0000035  R0000019  1.          
    C0000036  OBJROW    1.             R0000008  1.          
    C0000036  R0000019  1.          
    C0000037  OBJROW    1.             R0000008  1.          
    C0000037  R0000019  1.          
    C0000038  OBJROW    1.             R0000008  1.          
    C0000038  R0000019  1.          
    C0000039  OBJROW    1.             R0000008  1.          
    C0000039  R0000019  1.          
    C0000040  OBJROW    1.             R0000008  1.          
    C0000040  R0000019  1.          
    C0000041  OBJROW    1.             R0000008  1.          
    C0000041  R0000019  1.          
    C0000042  OBJROW    1.          
    C0000043  OBJROW    1.          
    C0000044  OBJROW    1.             R0000002  1.          
    C0000044  R0000003  1.             R0000004  1.          
    C0000044  R0000005  1.             R0000006  1.          
    C0000044  R0000011  1.             R0000012  1.          
    C0000044  R0000013  1.             R0000014  1.          
    C0000044  R0000015  1.             R0000016  1.          
    C0000044  R0000017  1.             R0000018  1.          
    C0000044  R0000019  1.          
    C0000045  OBJROW    1.             R0000001  1.          
    C0000045  R0000007  1.             R0000011  1.          
    C0000045  R0000019  1.          
    C0000046  OBJROW    1.             R0000000  1.          
    C0000046  R0000008  1.             R0000011  1.          
    C0000046  R0000019  1.          
    C0000047  OBJROW    1.             R0000000  1.          
    C0000047  R0000008  1.             R0000011  1.          
    C0000047  R0000019  1.          
    C0000048  OBJROW    1.             R0000000  1.          
    C0000048  R0000008  1.             R0000011  1.          
    C0000048  R0000019  1.          
    C0000049  OBJROW    1.             R0000000  1.          
    C0000049  R0000008  1.             R0000012  1.          
    C0000049  R0000018  1.          
    C0000050  OBJROW    1.             R0000000  1.          
    C0000050  R0000008  1.             R0000013  1.          
    C0000050  R0000017  1.          
    C0000051  OBJROW    1.             R0000001  1.          
    C0000051  R0000007  1.             R0000014  1.          
    C0000051  R0000015  1.             R0000016  1.          
    C0000052  OBJROW    1.             R0000002  1.          
    C0000052  R0000003  1.             R0000004  1.          
    C0000052  R0000005  1.             R0000006  1.          
RHS
    RHS       R0000000  1.             R0000001  1.          
    RHS       R0000002  1.             R0000003  1.          
    RHS       R0000004  1.             R0000005  1.          
    RHS       R0000006  1.             R0000007  1.          
    RHS       R0000008  1.             R0000009  1.          
    RHS       R0000010  1.             R0000011  1.          
    RHS       R0000012  1.             R0000013  1.          
    RHS       R0000014  1.             R0000015  1.          
    RHS       R0000016  1.             R0000017  1.          
    RHS       R0000018  1.             R0000019  1.          
    RHS       R0000020  1.          
RANGES
    RANGE     R0000000  1.             R0000001  1.          
    RANGE     R0000002  1.             R0000003  1.          
    RANGE     R0000004  1.             R0000005  1.          
    RANGE     R0000006  1.             R0000007  1.          
    RANGE     R0000008  1.             R0000009  1.          
    RANGE     R0000010  1.             R0000011  1.          
    RANGE     R0000012  1.             R0000013  1.          
    RANGE     R0000014  1.             R0000015  1.          
    RANGE     R0000016  1.             R0000017  1.          
    RANGE     R0000018  1.             R0000019  1.          
    RANGE     R0000020  1.          
BOUNDS
 UP BOUND     C0000000  1.          
 UP BOUND     C0000001  1.          
 UP BOUND     C0000002  1.          
 UP BOUND     C0000003  1.          
 UP BOUND     C0000004  1.          
 UP BOUND     C0000005  1.          
 UP BOUND     C0000006  1.          
 UP BOUND     C0000007  1.          
 UP BOUND     C0000008  1.          
 UP BOUND     C0000009  1.          
 UP BOUND     C0000010  1.          
 UP BOUND     C0000011  1.          
 UP BOUND     C0000012  1.          
 UP BOUND     C0000013  1.          
 UP BOUND     C0000014  1.          
 UP BOUND     C0000015  1.          
 UP BOUND     C0000016  1.          
 UP BOUND     C0000017  1.          
 UP BOUND     C0000018  1.          
 UP BOUND     C0000019  1.          
 UP BOUND     C0000020  1.          
 UP BOUND     C0000021  1.          
 UP BOUND     C0000022  1.          
 UP BOUND     C0000023  1.          
 UP BOUND     C0000024  1.          
 UP BOUND     C0000025  1.          
 UP BOUND     C0000026  1.          
 UP BOUND     C0000027  1.          
 UP BOUND     C0000028  1.          
 UP BOUND     C0000029  1.          
 UP BOUND     C0000030  1.          
 UP BOUND     C0000031  1.          
 UP BOUND     C0000032  1.          
 UP BOUND     C0000033  1.          
 UP BOUND     C0000034  1.          
 UP BOUND     C0000035  1.          
 UP BOUND     C0000036  1.          
 UP BOUND     C0000037  1.          
 UP BOUND     C0000038  1.          
 UP BOUND     C0000039  1.          
 UP BOUND     C0000040  1.          
 UP BOUND     C0000041  1.          
 UP BOUND     C0000042  1.          
 UP BOUND     C0000043  1.          
 UP BOUND     C0000044  1.          
 UP BOUND     C0000045  1.          
 UP BOUND     C0000046  1.          
 UP BOUND     C0000047  1.          
 UP BOUND     C0000048  1.          
 UP BOUND     C0000049  1.          
 UP BOUND     C0000050  1.          
 UP BOUND     C0000051  1.          
 UP BOUND     C0000052  1.          
ENDATA
